NAME: concorde91
TYPE: TSP
DIMENSION: 15 
EDGE_WEIGHT_TYPE: EUC_2D
NODE_COORD_SECTION
1 4 85
2 31 15
3 13 83
4 3 87
5 12 66
6 57 2
7 12 100
8 76 14
9 10 8
10 23 80
11 44 34
12 52 73
13 93 34
14 4 86
15 15 41
